17	4	3
43	36	39	30	13	9	21	
0	0	0	0	0	4	8	6	5	4	7	3	2	3	4
6	1	9	2	10	2	1	4	10	7	3	3	5	10	17
6	9	2	3	4	3	10	5	6	5	8	2	6	17
10	8	2	3	1	10	10	2	1	1	3	1	13
5	5	10	9	8	1	2	5	7	9	4	1	17
50	5	6	2	2	9	3	1	4	7	4	3	7	8	12
150	8	5	4	3	10	8	5	4	8	1	1	14
175	10	2	6	3	7	10	1	2	6	6	3	9	11	17
175	3	5	1	2	9	5	5	1	6	6	1	17
75	7	3	3	3	3	6	8	8	2	6	1	15
250	3	2	9	2	1	1	9	2	5	5	1	17
25	7	5	8	7	6	5	3	1	8	1	1	17
4	3	6	2	6	2	4	1	3	5	6	1	17
10	8	8	8	7	8	4	1	3	4	6	1	17
10	6	3	4	1	9	7	2	6	4	3	2	16	17
7	7	9	7	6	2	5	4	10	7	8	1	17
0	0	0	0	0	5	2	2	8	3	9	0
